NAME : portcgen-25-6
COMMENT : portcgen N=25, seed=6
TYPE : TSP
DIMENSION : 25
EDGE_WEIGHT_TYPE : EUC_2D
NODE_COORD_SECTION
1 -74125 157181
2 63101 -135345
3 171918 10136
4 97167 212495
5 -123650 141307
6 63906 -98844
7 268408 449433
8 152374 -184473
9 -99632 -138596
10 51810 -279163
11 125187 -66254
12 -151992 104929
13 -185402 -279934
14 3221 28937
15 129771 286216
16 -99052 -25668
17 128590 -276772
18 7351 -28018
19 107533 114179
20 131481 156901
21 -361427 49114
22 -36668 -196248
23 -553303 -76877
24 44766 -12591
25 -47806 21873
